p cnf 131 423
c t mc
-3 -1 0
-3 -2 0
1 2 3 0
-7 -5 0
-7 6 0
5 -6 7 0
-2 -7 -8 0
2 7 -8 0
-2 7 8 0
2 -7 8 0
-9 4 0
-9 8 0
-4 -8 9 0
-11 9 0
-11 10 0
-9 -10 11 0
12 -3 0
12 11 0
3 -11 -12 0
13 8 -14 0
-13 -8 -14 0
13 -8 14 0
-13 8 14 0
-16 -15 0
-16 7 0
15 -7 16 0
-18 16 0
-18 -17 0
-16 17 18 0
-19 14 0
-19 -18 0
-14 18 19 0
-23 -21 0
-23 22 0
21 -22 23 0
-24 -8 0
-24 23 0
8 -23 24 0
-24 -16 -25 0
24 16 -25 0
-24 16 25 0
24 -16 25 0
-26 20 0
-26 25 0
-20 -25 26 0
19 -26 -27 0
-19 26 -27 0
19 26 27 0
-19 -26 27 0
12 -27 -28 0
-12 27 -28 0
12 27 28 0
-12 -27 28 0
-31 22 0
-31 30 0
-22 -30 31 0
32 -29 0
32 31 0
29 -31 -32 0
22 -33 -34 0
-22 33 -34 0
22 33 34 0
-22 -33 34 0
35 17 0
35 34 0
-17 -34 -35 0
36 -24 0
36 35 0
24 -35 -36 0
37 -32 0
37 -36 0
32 36 -37 0
37 35 -38 0
-37 -35 -38 0
37 -35 38 0
-37 35 38 0
21 23 -39 0
-21 -23 -39 0
21 -23 39 0
-21 23 39 0
39 17 -40 0
-39 -17 -40 0
39 -17 40 0
-39 17 40 0
41 40 0
41 18 0
-40 -18 -41 0
42 -41 0
42 40 0
41 -40 -42 0
38 -42 -43 0
-38 42 -43 0
38 42 43 0
-38 -42 43 0
-28 43 -44 0
28 -43 -44 0
-28 -43 44 0
28 43 44 0
-1 23 -45 0
1 -23 -45 0
-1 -23 45 0
1 23 45 0
46 45 0
46 -22 0
-45 22 -46 0
47 46 0
47 5 0
-46 -5 -47 0
48 -32 0
48 -14 0
32 14 -48 0
-49 47 0
-49 48 0
-47 -48 49 0
-50 -16 -51 0
50 16 -51 0
-50 16 51 0
50 -16 51 0
-52 -49 0
-52 -51 0
49 51 52 0
44 -52 -53 0
-44 52 -53 0
44 52 53 0
-44 -52 53 0
-54 50 0
-54 -39 0
-50 39 54 0
-55 -23 0
-55 17 0
23 -17 55 0
56 33 0
56 -55 0
-33 55 -56 0
-54 -56 -57 0
54 56 -57 0
-54 56 57 0
54 -56 57 0
60 -59 0
60 -20 0
59 20 -60 0
61 -58 0
61 -60 0
58 60 -61 0
-62 -7 0
-62 -39 0
7 39 62 0
13 -62 -63 0
-13 62 -63 0
13 62 63 0
-13 -62 63 0
64 21 0
64 63 0
-21 -63 -64 0
65 61 0
65 64 0
-61 -64 -65 0
-66 -23 -67 0
66 23 -67 0
-66 23 67 0
66 -23 67 0
8 -67 -68 0
-8 67 -68 0
8 67 68 0
-8 -67 68 0
-69 68 0
-69 4 0
-68 -4 69 0
65 69 -70 0
-65 -69 -70 0
65 -69 70 0
-65 69 70 0
71 -57 0
71 70 0
57 -70 -71 0
8 59 -72 0
-8 -59 -72 0
8 -59 72 0
-8 59 72 0
-72 -2 -73 0
72 2 -73 0
-72 2 73 0
72 -2 73 0
73 -74 -75 0
-73 74 -75 0
73 74 75 0
-73 -74 75 0
71 75 -76 0
-71 -75 -76 0
71 -75 76 0
-71 75 76 0
-77 54 0
-77 23 0
-54 -23 77 0
-76 -77 -78 0
76 77 -78 0
-76 77 78 0
76 -77 78 0
79 -53 0
79 -78 0
53 78 -79 0
-81 4 0
-81 -80 0
-4 80 81 0
82 7 0
82 2 0
-7 -2 -82 0
81 -82 -83 0
-81 82 -83 0
81 82 83 0
-81 -82 83 0
-84 -83 0
-84 19 0
83 -19 84 0
35 -19 -85 0
-35 19 -85 0
35 19 85 0
-35 -19 85 0
85 4 -86 0
-85 -4 -86 0
85 -4 86 0
-85 4 86 0
-87 -84 0
-87 -86 0
84 86 87 0
23 -81 -88 0
-23 81 -88 0
23 81 88 0
-23 -81 88 0
-89 8 0
-89 81 0
-8 -81 89 0
-90 88 0
-90 -89 0
-88 89 90 0
-91 -10 0
-91 -16 0
10 16 91 0
13 -59 -92 0
-13 59 -92 0
13 59 92 0
-13 -59 92 0
93 -25 0
93 63 0
25 -63 -93 0
92 -93 -94 0
-92 93 -94 0
92 93 94 0
-92 -93 94 0
94 60 -95 0
-94 -60 -95 0
94 -60 95 0
-94 60 95 0
96 -23 0
96 95 0
23 -95 -96 0
-97 -96 0
-97 4 0
96 -4 97 0
-91 97 -98 0
91 -97 -98 0
-91 -97 98 0
91 97 98 0
99 -90 0
99 98 0
90 -98 -99 0
-100 -87 0
-100 -99 0
87 99 100 0
-101 -25 0
-101 -23 0
25 23 101 0
-102 13 0
-102 -14 0
-13 14 102 0
103 101 0
103 -102 0
-101 102 -103 0
-104 67 0
-104 -46 0
-67 46 104 0
105 -6 0
105 104 0
6 -104 -105 0
-106 103 0
-106 -105 0
-103 105 106 0
83 92 -107 0
-83 -92 -107 0
83 -92 107 0
-83 92 107 0
-108 -2 0
-108 5 0
2 -5 108 0
-109 108 0
-109 -50 0
-108 50 109 0
107 109 -110 0
-107 -109 -110 0
107 -109 110 0
-107 109 110 0
111 19 0
111 83 0
-19 -83 -111 0
-112 -110 0
-112 -111 0
110 111 112 0
106 -112 -113 0
-106 112 -113 0
106 112 113 0
-106 -112 113 0
-114 100 0
-114 -113 0
-100 113 114 0
-115 -79 0
-115 -114 0
79 114 115 0
116 20 0
116 -1 0
-20 1 -116 0
117 116 0
117 92 0
-116 -92 -117 0
-118 82 0
-118 26 0
-82 -26 118 0
118 119 0
-118 119 0
117 -119 -120 0
-117 119 -120 0
117 119 120 0
-117 -119 120 0
-121 -17 0
-121 -45 0
17 45 121 0
14 20 -122 0
-14 -20 -122 0
14 -20 122 0
-14 20 122 0
123 56 0
123 -88 0
-56 88 -123 0
124 -122 0
124 -123 0
122 123 -124 0
-22 55 -125 0
22 -55 -125 0
-22 -55 125 0
22 55 125 0
-124 -125 -126 0
124 125 -126 0
-124 125 126 0
124 -125 126 0
-121 -126 -127 0
121 126 -127 0
-121 126 127 0
121 -126 127 0
128 4 0
128 -95 0
-4 95 -128 0
129 -127 0
129 128 0
127 -128 -129 0
120 -129 -130 0
-120 129 -130 0
120 129 130 0
-120 -129 130 0
131 115 0
131 130 0
-115 -130 -131 0
-3 -77 43 -110 45 79 0
28 65 -22 -32 -26 73 0
5 -58 -111 9 0
39 75 61 -100 -88 0
53 23 -48 67 -107 0
131 -80 -115 -34 0
120 -92 50 49 -115 44 -105 130 113 114 0
121 52 115 -4 -126 -75 -64 40 0
120 58 76 -131 97 0
-50 59 -128 105 -100 -119 104 12 -56 0
116 125 87 30 -111 -127 108 7 0
71 -21 -23 128 -82 -44 37 20 0
12 -19 76 -37 30 -18 99 -112 0
41 -79 25 -92 -85 -104 107 0
-43 117 106 0
19 -126 -17 127 96 37 -35 0
-110 -48 102 116 88 118 0
107 116 -24 -84 0
-33 37 -11 -86 84 13 47 70 41 0
-20 -103 14 28 78 -114 -6 0
-105 -124 25 112 13 -88 97 -76 -118 0
-85 58 81 -30 -87 -35 -108 76 0
86 80 44 77 114 37 -85 51 122 0
-20 101 26 -75 0
35 -15 60 -89 0
74 75 -64 -7 61 -14 -112 -82 -63 52 0
88 -76 -96 114 0
-60 123 -22 -16 34 58 0
89 -47 -43 -49 0
117 44 -1 14 15 -73 90 0
23 51 79 -42 -116 0
-6 30 51 123 75 -48 23 0
-2 -30 35 21 -19 43 0
111 7 -86 103 88 63 81 -73 0
123 82 58 -8 70 -119 9 0
-99 -92 66 -33 123 51 0
-86 26 122 126 105 -13 0
114 -59 -38 23 63 -81 65 0
29 128 30 -15 111 -87 -113 117 0
46 88 -115 -85 -17 -78 0
-28 -54 25 50 -117 -12 -91 -108 -113 0
32 -23 -126 -61 107 25 67 27 0
11 64 -112 -59 0
-111 -80 90 -67 -55 -129 0
83 37 30 80 89 -79 99 -130 0
-120 58 -49 125 108 -63 74 106 48 0
118 -3 -126 1 -110 -49 29 22 0
-98 -64 82 -55 125 -127 86 -53 -80 0
21 -46 -131 70 97 -55 0
125 59 38 123 -52 8 -21 126 15 0
-61 -39 27 0
103 61 22 -1 11 4 -113 31 0
131 0
